c File: flat50_3_0.col
c
c SOURCE: Joseph Culberson (joe@cs.ualberta.ca)
c DESCRIPTION: Quasi-random coloring problem
c              generated with flatness = 0
c                             probability = 0.139
c                             known coloring = 3
c                             random seed = 1926
c              Creation Date:  Tue Jun  9 12:21:20 1998
c Maximum degree = 8 Minimum degree = 1
c p edge 50 115
c cnf created by edge2cnf
p cnf 150 545
-1 -2 0
-1 -3 0
-2 -3 0
1 2 3 0
-4 -5 0
-4 -6 0
-5 -6 0
4 5 6 0
-7 -8 0
-7 -9 0
-8 -9 0
7 8 9 0
-10 -11 0
-10 -12 0
-11 -12 0
10 11 12 0
-13 -14 0
-13 -15 0
-14 -15 0
13 14 15 0
-16 -17 0
-16 -18 0
-17 -18 0
16 17 18 0
-19 -20 0
-19 -21 0
-20 -21 0
19 20 21 0
-22 -23 0
-22 -24 0
-23 -24 0
22 23 24 0
-25 -26 0
-25 -27 0
-26 -27 0
25 26 27 0
-28 -29 0
-28 -30 0
-29 -30 0
28 29 30 0
-31 -32 0
-31 -33 0
-32 -33 0
31 32 33 0
-34 -35 0
-34 -36 0
-35 -36 0
34 35 36 0
-37 -38 0
-37 -39 0
-38 -39 0
37 38 39 0
-40 -41 0
-40 -42 0
-41 -42 0
40 41 42 0
-43 -44 0
-43 -45 0
-44 -45 0
43 44 45 0
-46 -47 0
-46 -48 0
-47 -48 0
46 47 48 0
-49 -50 0
-49 -51 0
-50 -51 0
49 50 51 0
-52 -53 0
-52 -54 0
-53 -54 0
52 53 54 0
-55 -56 0
-55 -57 0
-56 -57 0
55 56 57 0
-58 -59 0
-58 -60 0
-59 -60 0
58 59 60 0
-61 -62 0
-61 -63 0
-62 -63 0
61 62 63 0
-64 -65 0
-64 -66 0
-65 -66 0
64 65 66 0
-67 -68 0
-67 -69 0
-68 -69 0
67 68 69 0
-70 -71 0
-70 -72 0
-71 -72 0
70 71 72 0
-73 -74 0
-73 -75 0
-74 -75 0
73 74 75 0
-76 -77 0
-76 -78 0
-77 -78 0
76 77 78 0
-79 -80 0
-79 -81 0
-80 -81 0
79 80 81 0
-82 -83 0
-82 -84 0
-83 -84 0
82 83 84 0
-85 -86 0
-85 -87 0
-86 -87 0
85 86 87 0
-88 -89 0
-88 -90 0
-89 -90 0
88 89 90 0
-91 -92 0
-91 -93 0
-92 -93 0
91 92 93 0
-94 -95 0
-94 -96 0
-95 -96 0
94 95 96 0
-97 -98 0
-97 -99 0
-98 -99 0
97 98 99 0
-100 -101 0
-100 -102 0
-101 -102 0
100 101 102 0
-103 -104 0
-103 -105 0
-104 -105 0
103 104 105 0
-106 -107 0
-106 -108 0
-107 -108 0
106 107 108 0
-109 -110 0
-109 -111 0
-110 -111 0
109 110 111 0
-112 -113 0
-112 -114 0
-113 -114 0
112 113 114 0
-115 -116 0
-115 -117 0
-116 -117 0
115 116 117 0
-118 -119 0
-118 -120 0
-119 -120 0
118 119 120 0
-121 -122 0
-121 -123 0
-122 -123 0
121 122 123 0
-124 -125 0
-124 -126 0
-125 -126 0
124 125 126 0
-127 -128 0
-127 -129 0
-128 -129 0
127 128 129 0
-130 -131 0
-130 -132 0
-131 -132 0
130 131 132 0
-133 -134 0
-133 -135 0
-134 -135 0
133 134 135 0
-136 -137 0
-136 -138 0
-137 -138 0
136 137 138 0
-139 -140 0
-139 -141 0
-140 -141 0
139 140 141 0
-142 -143 0
-142 -144 0
-143 -144 0
142 143 144 0
-145 -146 0
-145 -147 0
-146 -147 0
145 146 147 0
-148 -149 0
-148 -150 0
-149 -150 0
148 149 150 0
-64 -1 0
-65 -2 0
-66 -3 0
-79 -1 0
-80 -2 0
-81 -3 0
-97 -1 0
-98 -2 0
-99 -3 0
-109 -1 0
-110 -2 0
-111 -3 0
-136 -1 0
-137 -2 0
-138 -3 0
-145 -1 0
-146 -2 0
-147 -3 0
-97 -4 0
-98 -5 0
-99 -6 0
-112 -4 0
-113 -5 0
-114 -6 0
-130 -4 0
-131 -5 0
-132 -6 0
-136 -4 0
-137 -5 0
-138 -6 0
-73 -7 0
-74 -8 0
-75 -9 0
-88 -7 0
-89 -8 0
-90 -9 0
-106 -7 0
-107 -8 0
-108 -9 0
-124 -7 0
-125 -8 0
-126 -9 0
-52 -10 0
-53 -11 0
-54 -12 0
-76 -10 0
-77 -11 0
-78 -12 0
-79 -10 0
-80 -11 0
-81 -12 0
-136 -10 0
-137 -11 0
-138 -12 0
-142 -10 0
-143 -11 0
-144 -12 0
-55 -13 0
-56 -14 0
-57 -15 0
-115 -13 0
-116 -14 0
-117 -15 0
-118 -13 0
-119 -14 0
-120 -15 0
-85 -16 0
-86 -17 0
-87 -18 0
-91 -16 0
-92 -17 0
-93 -18 0
-100 -16 0
-101 -17 0
-102 -18 0
-103 -16 0
-104 -17 0
-105 -18 0
-109 -16 0
-110 -17 0
-111 -18 0
-130 -16 0
-131 -17 0
-132 -18 0
-133 -16 0
-134 -17 0
-135 -18 0
-67 -19 0
-68 -20 0
-69 -21 0
-70 -19 0
-71 -20 0
-72 -21 0
-97 -19 0
-98 -20 0
-99 -21 0
-115 -19 0
-116 -20 0
-117 -21 0
-124 -19 0
-125 -20 0
-126 -21 0
-127 -19 0
-128 -20 0
-129 -21 0
-64 -22 0
-65 -23 0
-66 -24 0
-109 -22 0
-110 -23 0
-111 -24 0
-121 -22 0
-122 -23 0
-123 -24 0
-58 -25 0
-59 -26 0
-60 -27 0
-67 -25 0
-68 -26 0
-69 -27 0
-88 -25 0
-89 -26 0
-90 -27 0
-106 -25 0
-107 -26 0
-108 -27 0
-136 -25 0
-137 -26 0
-138 -27 0
-55 -28 0
-56 -29 0
-57 -30 0
-61 -28 0
-62 -29 0
-63 -30 0
-109 -28 0
-110 -29 0
-111 -30 0
-142 -28 0
-143 -29 0
-144 -30 0
-55 -31 0
-56 -32 0
-57 -33 0
-79 -31 0
-80 -32 0
-81 -33 0
-85 -31 0
-86 -32 0
-87 -33 0
-118 -31 0
-119 -32 0
-120 -33 0
-148 -31 0
-149 -32 0
-150 -33 0
-55 -34 0
-56 -35 0
-57 -36 0
-70 -34 0
-71 -35 0
-72 -36 0
-88 -34 0
-89 -35 0
-90 -36 0
-133 -34 0
-134 -35 0
-135 -36 0
-145 -34 0
-146 -35 0
-147 -36 0
-52 -37 0
-53 -38 0
-54 -39 0
-103 -37 0
-104 -38 0
-105 -39 0
-106 -37 0
-107 -38 0
-108 -39 0
-112 -37 0
-113 -38 0
-114 -39 0
-115 -37 0
-116 -38 0
-117 -39 0
-64 -40 0
-65 -41 0
-66 -42 0
-82 -40 0
-83 -41 0
-84 -42 0
-85 -40 0
-86 -41 0
-87 -42 0
-91 -40 0
-92 -41 0
-93 -42 0
-127 -40 0
-128 -41 0
-129 -42 0
-139 -40 0
-140 -41 0
-141 -42 0
-52 -43 0
-53 -44 0
-54 -45 0
-79 -43 0
-80 -44 0
-81 -45 0
-52 -46 0
-53 -47 0
-54 -48 0
-112 -46 0
-113 -47 0
-114 -48 0
-67 -49 0
-68 -50 0
-69 -51 0
-73 -49 0
-74 -50 0
-75 -51 0
-76 -49 0
-77 -50 0
-78 -51 0
-85 -49 0
-86 -50 0
-87 -51 0
-127 -49 0
-128 -50 0
-129 -51 0
-133 -52 0
-134 -53 0
-135 -54 0
-145 -52 0
-146 -53 0
-147 -54 0
-136 -55 0
-137 -56 0
-138 -57 0
-148 -55 0
-149 -56 0
-150 -57 0
-112 -58 0
-113 -59 0
-114 -60 0
-118 -58 0
-119 -59 0
-120 -60 0
-145 -58 0
-146 -59 0
-147 -60 0
-148 -58 0
-149 -59 0
-150 -60 0
-136 -61 0
-137 -62 0
-138 -63 0
-103 -64 0
-104 -65 0
-105 -66 0
-145 -64 0
-146 -65 0
-147 -66 0
-106 -67 0
-107 -68 0
-108 -69 0
-103 -70 0
-104 -71 0
-105 -72 0
-112 -70 0
-113 -71 0
-114 -72 0
-130 -70 0
-131 -71 0
-132 -72 0
-136 -70 0
-137 -71 0
-138 -72 0
-112 -73 0
-113 -74 0
-114 -75 0
-115 -73 0
-116 -74 0
-117 -75 0
-133 -73 0
-134 -74 0
-135 -75 0
-103 -76 0
-104 -77 0
-105 -78 0
-106 -76 0
-107 -77 0
-108 -78 0
-112 -76 0
-113 -77 0
-114 -78 0
-109 -79 0
-110 -80 0
-111 -81 0
-115 -79 0
-116 -80 0
-117 -81 0
-139 -79 0
-140 -80 0
-141 -81 0
-148 -79 0
-149 -80 0
-150 -81 0
-103 -82 0
-104 -83 0
-105 -84 0
-106 -91 0
-107 -92 0
-108 -93 0
-133 -91 0
-134 -92 0
-135 -93 0
-136 -94 0
-137 -95 0
-138 -96 0
-139 -94 0
-140 -95 0
-141 -96 0
-115 -97 0
-116 -98 0
-117 -99 0
-127 -97 0
-128 -98 0
-129 -99 0
-133 -97 0
-134 -98 0
-135 -99 0
-145 -97 0
-146 -98 0
-147 -99 0
-109 -100 0
-110 -101 0
-111 -102 0
-124 -100 0
-125 -101 0
-126 -102 0
-142 -100 0
-143 -101 0
-144 -102 0
